%%
% Autogenerated by /opt/prj/battleships-ai/src/server/solver.py, instance 4 10x10 [2] #5 <o2zi1g1zn>
% Source: https://www.puzzle-battleships.com/?size=4
%%

size = 10;
hints_num = 3;
hints = [| 2, 6 | 6, 2 | 6, 10 |];
ships_num = 10;

constr_rows = [3, 4, 1, 3, 1, 3, 0, 4, 1, 0];
constr_cols = [0, 2, 0, 5, 2, 2, 2, 0, 5, 2];

given_ships = [|
<>, <>, <>, <>, 1, |
<>, <>, <>, <>, 1, |
<>, <>, <>, <>, 1, |
<>, <>, <>, <>, 1, |
<>, <>, <>, <>, 2, |
<>, <>, <>, <>, 2, |
<>, <>, <>, <>, 2, |
<>, <>, <>, <>, 3, |
<>, <>, <>, <>, 3, |
<>, <>, <>, <>, 4  |];

